p cnf 10 50
-5 -8 9 0
-5 10 -9 0
-2 -9 6 0
9 -10 -3 0
6 5 -4 0
5 -9 2 0
-5 -4 -7 0
-9 7 -1 0
3 -9 7 0
8 1 -10 0
-6 -8 -1 0
-3 -1 8 0
-6 -1 5 0
6 -10 -7 0
2 -8 5 0
10 6 -1 0
-1 3 8 0
6 7 1 0
3 -10 -5 0
-2 10 3 0
7 3 -5 0
-3 -6 4 0
-3 5 -8 0
-7 -6 -1 0
-3 -2 -6 0
9 6 -1 0
1 -4 7 0
-6 -9 1 0
-5 -3 -8 0
-8 10 -9 0
-9 -2 -7 0
-1 -5 7 0
-3 -9 4 0
10 9 -5 0
7 -6 -3 0
3 10 2 0
7 10 -2 0
1 -10 -5 0
-7 8 -3 0
-9 -7 -3 0
-5 -3 -1 0
2 8 7 0
-1 8 10 0
-9 -2 -5 0
4 -5 -3 0
6 -3 -4 0
-3 6 9 0
-1 -6 4 0
-1 2 -6 0
10 -7 4 0